NetlogoNN/cases/Supply_Chain/mzn_exact_pareto/supply_chain.dzn
Clients_N = 1000;
Demand_W = 10;
Lt0 = 4;
Lt1 = 4;
SS_ = 0.85;
DS_D = 7;
K = 200;
MA = 500;
HC = 0.05;
