NetlogoNN/cases/Supply_Chain/mzn_exact_pareto/supply_chain.fzn
array [1..3] of int: X_INTRODUCED_0_ = [1,1,1];
array [1..4] of int: X_INTRODUCED_2_ = [1,1,1,1];
array [1..2] of int: X_INTRODUCED_6_ = [1,-6];
array [1..2] of int: X_INTRODUCED_9_ = [1,-4];
array [1..5] of float: X_INTRODUCED_58_ = [1.0,15.61497974395752,-8.031689643859863,0.178942933678627,-0.4332108795642853];
array [1..5] of float: X_INTRODUCED_61_ = [1.0,-1.364975214004517,0.194285124540329,-0.1211716309189796,0.5081174373626709];
array [1..5] of float: X_INTRODUCED_64_ = [1.0,0.9835948348045349,-0.3322202563285828,0.85221266746521,-0.3744771182537079];
var 1..3: Fact:: output_var;
var 1..10: Distr1:: output_var;
var 1..40: Distr2:: output_var;
var 0..1: v1_DailyPurchase:: output_var;
var 0..1: v2_PeriodicallyPurchase:: output_var;
var 0..1: v3_Random:: output_var;
var 0..1: v1_s_Q:: output_var;
var 0..1: v2_s_S:: output_var;
var 0..1: v3_R_S:: output_var;
var 0..1: v4_Random:: output_var;
var float: lost_ratio_sales_ret:: output_var;
var float: lost_ratio_sales_dis:: output_var;
var float: lost_ratio_sales_fac:: output_var;
var -43.0614099817203..220.5600538289015: n_3_0Supply_Chain_Supply_Chain_halton_pow2:: is_defined_var;
var -11.78833076894553..5.959819375760207: n_3_1Supply_Chain_Supply_Chain_halton_pow2:: is_defined_var;
var -7.00542876131489..14.25000787316567: n_3_2Supply_Chain_Supply_Chain_halton_pow2:: is_defined_var;
var 1.0..3.0: X_INTRODUCED_10_ ::var_is_introduced :: is_defined_var;
var 1.0..10.0: X_INTRODUCED_11_ ::var_is_introduced :: is_defined_var;
var 1.0..40.0: X_INTRODUCED_12_ ::var_is_introduced :: is_defined_var;
var 0.0..1.0: X_INTRODUCED_13_ ::var_is_introduced :: is_defined_var;
var 0.0..1.0: X_INTRODUCED_14_ ::var_is_introduced :: is_defined_var;
var 0.0..1.0: X_INTRODUCED_15_ ::var_is_introduced :: is_defined_var;
var 0.0..1.0: X_INTRODUCED_16_ ::var_is_introduced :: is_defined_var;
var 0.0..1.0: X_INTRODUCED_17_ ::var_is_introduced :: is_defined_var;
var 0.0..1.0: X_INTRODUCED_18_ ::var_is_introduced :: is_defined_var;
var 0.0..1.0: X_INTRODUCED_19_ ::var_is_introduced :: is_defined_var;
var 44.04060243221465..54.35581410455052: X_INTRODUCED_21_ ::var_is_introduced :: is_defined_var;
var 44.04060243221465..54.35581410455052: X_INTRODUCED_22_ ::var_is_introduced :: is_defined_var;
var 0.1021552548278124..4.470745945023372: X_INTRODUCED_24_ ::var_is_introduced :: is_defined_var;
var 0.1021552548278124..4.470745945023372: X_INTRODUCED_25_ ::var_is_introduced :: is_defined_var;
var 8.770359800197184..14.30404943879694: X_INTRODUCED_27_ ::var_is_introduced :: is_defined_var;
var 8.770359800197184..14.30404943879694: X_INTRODUCED_28_ ::var_is_introduced :: is_defined_var;
var -28.00517087420449..-27.48840597192757: X_INTRODUCED_30_ ::var_is_introduced :: is_defined_var;
var 0.0..0.0: X_INTRODUCED_31_ ::var_is_introduced :: is_defined_var;
var -22.35689261567553..-2.524774845704922: X_INTRODUCED_33_ ::var_is_introduced :: is_defined_var;
var 0.0..0.0: X_INTRODUCED_34_ ::var_is_introduced :: is_defined_var;
var 11.07283130870007..24.20103983187385: X_INTRODUCED_36_ ::var_is_introduced :: is_defined_var;
var 11.07283130870007..24.20103983187385: X_INTRODUCED_37_ ::var_is_introduced :: is_defined_var;
var 1.932478591692585..10.43398374259601: X_INTRODUCED_39_ ::var_is_introduced :: is_defined_var;
var 1.932478591692585..10.43398374259601: X_INTRODUCED_40_ ::var_is_introduced :: is_defined_var;
var -3.962899261058148..-2.907146607744282: X_INTRODUCED_42_ ::var_is_introduced :: is_defined_var;
var 0.0..0.0: X_INTRODUCED_43_ ::var_is_introduced :: is_defined_var;
var 5.714409860564644..14.7322238826239: X_INTRODUCED_45_ ::var_is_introduced :: is_defined_var;
var 5.714409860564644..14.7322238826239: X_INTRODUCED_46_ ::var_is_introduced :: is_defined_var;
var -6.221875007112119..5.940401597607034: X_INTRODUCED_48_ ::var_is_introduced :: is_defined_var;
var 0.0..5.940401597607034: X_INTRODUCED_49_ ::var_is_introduced :: is_defined_var;
var 10.2204763083156..30.23557335061579: X_INTRODUCED_51_ ::var_is_introduced :: is_defined_var;
var 10.2204763083156..30.23557335061579: X_INTRODUCED_52_ ::var_is_introduced :: is_defined_var;
var 1.813352631799893..8.082768906877908: X_INTRODUCED_54_ ::var_is_introduced :: is_defined_var;
var 1.813352631799893..8.082768906877908: X_INTRODUCED_55_ ::var_is_introduced :: is_defined_var;
var -9497.626903516628..48646.73734500793: X_INTRODUCED_65_ ::var_is_introduced :: is_defined_var;
var -9496.626903516628..48647.73734500793: X_INTRODUCED_67_ ::var_is_introduced :: is_defined_var;
var float: X_INTRODUCED_68_ ::var_is_introduced :: is_defined_var;
var -70.25632212463181..138.9647423180679: X_INTRODUCED_69_ ::var_is_introduced :: is_defined_var;
var -69.25632212463181..139.9647423180679: X_INTRODUCED_70_ ::var_is_introduced :: is_defined_var;
var float: X_INTRODUCED_71_ ::var_is_introduced :: is_defined_var;
var -99.82741500363844..203.0627243852837: X_INTRODUCED_72_ ::var_is_introduced :: is_defined_var;
var -98.82741500363844..204.0627243852837: X_INTRODUCED_73_ ::var_is_introduced :: is_defined_var;
var float: X_INTRODUCED_74_ ::var_is_introduced :: is_defined_var;
constraint int_lin_eq(X_INTRODUCED_0_,[v2_PeriodicallyPurchase,v1_DailyPurchase,v3_Random],1);
constraint int_lin_eq(X_INTRODUCED_2_,[v3_R_S,v2_s_S,v1_s_Q,v4_Random],1);
constraint int_lin_le(X_INTRODUCED_6_,[Distr1,Fact],0);
constraint int_lin_le(X_INTRODUCED_9_,[Distr2,Distr1],0);
constraint float_max(X_INTRODUCED_21_,0.0,X_INTRODUCED_22_):: defines_var(X_INTRODUCED_22_);
constraint float_max(X_INTRODUCED_24_,0.0,X_INTRODUCED_25_):: defines_var(X_INTRODUCED_25_);
constraint float_max(X_INTRODUCED_27_,0.0,X_INTRODUCED_28_):: defines_var(X_INTRODUCED_28_);
constraint float_max(X_INTRODUCED_30_,0.0,X_INTRODUCED_31_):: defines_var(X_INTRODUCED_31_);
constraint float_max(X_INTRODUCED_33_,0.0,X_INTRODUCED_34_):: defines_var(X_INTRODUCED_34_);
constraint float_max(X_INTRODUCED_36_,0.0,X_INTRODUCED_37_):: defines_var(X_INTRODUCED_37_);
constraint float_max(X_INTRODUCED_39_,0.0,X_INTRODUCED_40_):: defines_var(X_INTRODUCED_40_);
constraint float_max(X_INTRODUCED_42_,0.0,X_INTRODUCED_43_):: defines_var(X_INTRODUCED_43_);
constraint float_max(X_INTRODUCED_45_,0.0,X_INTRODUCED_46_):: defines_var(X_INTRODUCED_46_);
constraint float_max(X_INTRODUCED_48_,0.0,X_INTRODUCED_49_):: defines_var(X_INTRODUCED_49_);
constraint float_max(X_INTRODUCED_51_,0.0,X_INTRODUCED_52_):: defines_var(X_INTRODUCED_52_);
constraint float_max(X_INTRODUCED_54_,0.0,X_INTRODUCED_55_):: defines_var(X_INTRODUCED_55_);
constraint float_lin_eq(X_INTRODUCED_58_,[n_3_0Supply_Chain_Supply_Chain_halton_pow2,X_INTRODUCED_55_,X_INTRODUCED_52_,X_INTRODUCED_49_,X_INTRODUCED_46_],-0.3493825793266296):: defines_var(n_3_0Supply_Chain_Supply_Chain_halton_pow2);
constraint float_lin_eq(X_INTRODUCED_61_,[n_3_1Supply_Chain_Supply_Chain_halton_pow2,X_INTRODUCED_55_,X_INTRODUCED_52_,X_INTRODUCED_49_,X_INTRODUCED_46_],-0.9034901857376099):: defines_var(n_3_1Supply_Chain_Supply_Chain_halton_pow2);
constraint float_lin_eq(X_INTRODUCED_64_,[n_3_2Supply_Chain_Supply_Chain_halton_pow2,X_INTRODUCED_55_,X_INTRODUCED_52_,X_INTRODUCED_49_,X_INTRODUCED_46_],0.4718614816665649):: defines_var(n_3_2Supply_Chain_Supply_Chain_halton_pow2);
constraint float_eq(X_INTRODUCED_68_,1.0);
constraint float_eq(X_INTRODUCED_71_,1.0);
constraint float_eq(X_INTRODUCED_74_,1.0);
constraint int2float(Fact,X_INTRODUCED_10_):: defines_var(X_INTRODUCED_10_);
constraint int2float(Distr1,X_INTRODUCED_11_):: defines_var(X_INTRODUCED_11_);
constraint int2float(Distr2,X_INTRODUCED_12_):: defines_var(X_INTRODUCED_12_);
constraint int2float(v1_DailyPurchase,X_INTRODUCED_13_):: defines_var(X_INTRODUCED_13_);
constraint int2float(v2_PeriodicallyPurchase,X_INTRODUCED_14_):: defines_var(X_INTRODUCED_14_);
constraint int2float(v3_Random,X_INTRODUCED_15_):: defines_var(X_INTRODUCED_15_);
constraint int2float(v1_s_Q,X_INTRODUCED_16_):: defines_var(X_INTRODUCED_16_);
constraint int2float(v2_s_S,X_INTRODUCED_17_):: defines_var(X_INTRODUCED_17_);
constraint int2float(v3_R_S,X_INTRODUCED_18_):: defines_var(X_INTRODUCED_18_);
constraint int2float(v4_Random,X_INTRODUCED_19_):: defines_var(X_INTRODUCED_19_);
constraint float_lin_eq([-0.2887506783008575,1.609129548072815,-0.3518247604370117,2.549088716506958,1.436860799789429,-0.2034197002649307,-0.2171456515789032,-0.03719976171851158,-0.1244458556175232,0.5440942049026489,-1.0],[X_INTRODUCED_19_,X_INTRODUCED_18_,X_INTRODUCED_17_,X_INTRODUCED_16_,X_INTRODUCED_15_,X_INTRODUCED_14_,X_INTRODUCED_13_,X_INTRODUCED_12_,X_INTRODUCED_11_,X_INTRODUCED_10_,X_INTRODUCED_21_],-47.2900980428094):: defines_var(X_INTRODUCED_21_);
constraint float_lin_eq([0.3067812919616699,-0.4518886804580688,-0.2368354499340057,0.1539014875888824,0.2050497531890869,-0.3268334567546844,0.9428499341011047,-0.02493353933095932,-0.0590110719203949,-0.1204714775085449,-1.0],[X_INTRODUCED_19_,X_INTRODUCED_18_,X_INTRODUCED_17_,X_INTRODUCED_16_,X_INTRODUCED_15_,X_INTRODUCED_14_,X_INTRODUCED_13_,X_INTRODUCED_12_,X_INTRODUCED_11_,X_INTRODUCED_10_,X_INTRODUCED_24_],-3.066579566942528):: defines_var(X_INTRODUCED_24_);
constraint float_lin_eq([-0.3780035972595215,0.3034745156764984,-0.2611888945102692,0.7800416350364685,0.02492340467870235,-0.1015673130750656,0.7210345268249512,-0.05329335480928421,0.00964047759771347,0.3991253077983856,-1.0],[X_INTRODUCED_19_,X_INTRODUCED_18_,X_INTRODUCED_17_,X_INTRODUCED_16_,X_INTRODUCED_15_,X_INTRODUCED_14_,X_INTRODUCED_13_,X_INTRODUCED_12_,X_INTRODUCED_11_,X_INTRODUCED_10_,X_INTRODUCED_27_],-11.23408801201731):: defines_var(X_INTRODUCED_27_);
constraint float_lin_eq([-0.01563812792301178,0.01691816188395023,0.003213293384760618,0.007774176076054573,0.001127067720517516,0.01821384765207767,0.02411538735032082,0.005558554548770189,-0.01806702837347984,0.02518897876143456,-1.0],[X_INTRODUCED_19_,X_INTRODUCED_18_,X_INTRODUCED_17_,X_INTRODUCED_16_,X_INTRODUCED_15_,X_INTRODUCED_14_,X_INTRODUCED_13_,X_INTRODUCED_12_,X_INTRODUCED_11_,X_INTRODUCED_10_,X_INTRODUCED_30_],27.83960999585688):: defines_var(X_INTRODUCED_30_);
constraint float_lin_eq([-0.02275462448596954,-1.787261009216309,2.095596313476562,0.07631132751703262,-1.0],[X_INTRODUCED_31_,X_INTRODUCED_28_,X_INTRODUCED_25_,X_INTRODUCED_22_,X_INTRODUCED_33_],0.3666957914829254):: defines_var(X_INTRODUCED_33_);
constraint float_lin_eq([0.007621584925800562,0.4493744969367981,-1.5816490650177,0.36178919672966,-1.0],[X_INTRODUCED_31_,X_INTRODUCED_28_,X_INTRODUCED_25_,X_INTRODUCED_22_,X_INTRODUCED_36_],1.730607748031616):: defines_var(X_INTRODUCED_36_);
constraint float_lin_eq([-0.0214804969727993,0.6400346159934998,0.9550679922103882,-0.07633882015943527,-1.0],[X_INTRODUCED_31_,X_INTRODUCED_28_,X_INTRODUCED_25_,X_INTRODUCED_22_,X_INTRODUCED_39_],-0.3710382282733917):: defines_var(X_INTRODUCED_39_);
constraint float_lin_eq([-0.02949315868318081,-0.04061358794569969,-0.05480390787124634,-0.05735159292817116,-1.0],[X_INTRODUCED_31_,X_INTRODUCED_28_,X_INTRODUCED_25_,X_INTRODUCED_22_,X_INTRODUCED_42_],0.01955361850559711):: defines_var(X_INTRODUCED_42_);
constraint float_lin_eq([-0.05496527254581451,0.4672613143920898,0.3843166828155518,0.5989176630973816,-1.0],[X_INTRODUCED_43_,X_INTRODUCED_40_,X_INTRODUCED_37_,X_INTRODUCED_34_,X_INTRODUCED_45_],-0.5559635758399963):: defines_var(X_INTRODUCED_45_);
constraint float_lin_eq([-0.04885637387633324,-0.9562735557556152,0.3071639239788055,-0.3173876404762268,-1.0],[X_INTRODUCED_43_,X_INTRODUCED_40_,X_INTRODUCED_37_,X_INTRODUCED_34_,X_INTRODUCED_48_],-0.3546934127807617):: defines_var(X_INTRODUCED_48_);
constraint float_lin_eq([0.007769887801259756,1.259479284286499,0.7089792490005493,2.024845361709595,-1.0],[X_INTRODUCED_43_,X_INTRODUCED_40_,X_INTRODUCED_37_,X_INTRODUCED_34_,X_INTRODUCED_51_],0.06384807080030441):: defines_var(X_INTRODUCED_51_);
constraint float_lin_eq([0.01508941501379013,0.3665074408054352,0.2402118593454361,0.5065627694129944,-1.0],[X_INTRODUCED_43_,X_INTRODUCED_40_,X_INTRODUCED_37_,X_INTRODUCED_34_,X_INTRODUCED_54_],1.55474054813385):: defines_var(X_INTRODUCED_54_);
constraint float_times(n_3_0Supply_Chain_Supply_Chain_halton_pow2,n_3_0Supply_Chain_Supply_Chain_halton_pow2,X_INTRODUCED_65_):: defines_var(X_INTRODUCED_65_);
constraint float_lin_eq([1.0,-1.0],[X_INTRODUCED_65_,X_INTRODUCED_67_],-1.0):: defines_var(X_INTRODUCED_67_);
constraint float_times(lost_ratio_sales_ret,X_INTRODUCED_67_,X_INTRODUCED_68_):: defines_var(X_INTRODUCED_68_);
constraint float_times(n_3_1Supply_Chain_Supply_Chain_halton_pow2,n_3_1Supply_Chain_Supply_Chain_halton_pow2,X_INTRODUCED_69_):: defines_var(X_INTRODUCED_69_);
constraint float_lin_eq([1.0,-1.0],[X_INTRODUCED_69_,X_INTRODUCED_70_],-1.0):: defines_var(X_INTRODUCED_70_);
constraint float_times(lost_ratio_sales_dis,X_INTRODUCED_70_,X_INTRODUCED_71_):: defines_var(X_INTRODUCED_71_);
constraint float_times(n_3_2Supply_Chain_Supply_Chain_halton_pow2,n_3_2Supply_Chain_Supply_Chain_halton_pow2,X_INTRODUCED_72_):: defines_var(X_INTRODUCED_72_);
constraint float_lin_eq([1.0,-1.0],[X_INTRODUCED_72_,X_INTRODUCED_73_],-1.0):: defines_var(X_INTRODUCED_73_);
constraint float_times(lost_ratio_sales_fac,X_INTRODUCED_73_,X_INTRODUCED_74_):: defines_var(X_INTRODUCED_74_);
solve minimize lost_ratio_sales_ret, minimize lost_ratio_sales_dis, minimize lost_ratio_sales_fac;
